R=29;
C=17;
bomb=[|0,M,0,0,0,0,0,0,0,0,0,0,0,0,0,0,0,|
0,0,0,0,0,0,0,0,0,0,0,0,0,0,0,0,0,|
0,0,0,0,0,0,0,0,0,0,0,0,0,0,0,0,0,|
0,0,0,0,0,0,0,0,0,0,0,0,0,0,0,0,0,|
0,0,0,0,0,0,M,0,0,0,0,0,0,0,0,0,0,|
0,0,0,0,0,0,0,0,0,0,0,0,0,0,0,0,0,|
0,0,0,0,0,0,0,0,0,0,0,M,0,0,0,0,0,|
0,0,0,0,0,0,0,0,0,0,0,0,0,0,0,0,0,|
0,0,0,M,M,0,0,0,0,0,0,0,0,0,0,0,0,|
0,0,0,0,M,0,0,0,0,0,0,0,0,0,0,0,0,|
0,0,0,0,0,0,0,0,0,0,M,0,0,0,0,0,0,|
0,0,0,0,0,0,0,0,0,0,0,0,0,0,0,0,0,|
0,0,0,0,M,M,0,0,0,0,0,0,0,0,0,0,0,|
0,M,0,0,0,0,0,0,0,0,0,0,0,0,0,0,0,|
0,0,0,0,0,0,0,0,0,0,0,0,0,M,0,0,0,|
0,0,M,0,0,0,0,0,0,0,0,0,0,0,0,0,0,|
0,0,0,0,0,0,0,0,0,0,0,0,0,0,0,0,0,|
0,0,0,0,0,M,0,0,0,0,0,0,0,0,0,0,0,|
0,0,0,0,0,0,0,0,M,0,0,0,0,0,0,0,0,|
0,0,0,0,0,0,M,0,0,0,0,0,0,0,0,0,0,|
0,0,0,0,0,0,0,0,0,0,0,0,0,0,0,0,0,|
0,0,0,0,0,0,0,0,0,0,0,0,0,0,0,0,0,|
0,0,0,0,0,0,0,0,0,0,0,0,0,0,0,0,0,|
0,0,0,0,0,0,M,0,0,0,0,0,0,0,0,M,0,|
0,0,0,0,0,0,0,0,0,0,0,0,0,0,0,0,0,|
0,0,M,0,0,0,0,0,0,0,0,0,0,0,0,0,0,|
0,0,0,0,0,0,0,0,0,0,0,0,0,0,0,0,0,|
0,0,0,0,0,0,0,0,0,0,0,0,0,0,0,0,0,|
0,0,0,0,0,0,0,0,0,0,0,0,0,0,0,0,0,|];